Problem:    
Rows:       260
Columns:    89 (72 integer, 72 binary)
Non-zeros:  974
Status:     INTEGER OPTIMAL
Objective:  value = 56.365516 (MINimum)

   No.   Row name        Activity     Lower bound   Upper bound
------ ------------    ------------- ------------- -------------
     1 r.5                   56.3655             0               
     2 r.6                   20.8609       -983.06               
     3 r.7                   1056.37             0               
     4 r.8                  -980.221      -987.744               
     5 r.9                   1056.37             0               
     6 r.10                 -979.548      -983.224               
     7 r.11                  56.3655             0               
     8 r.12                  20.4523      -988.369               
     9 r.13                  56.3655             0               
    10 r.14                  20.8609      -999.072               
    11 r.15                  1056.37             0               
    12 r.16                 -995.313      -997.188               
    13 r.17                  1056.37             0               
    14 r.18                 -996.324      -998.199               
    15 r.19                  56.3655             0               
    16 r.20                  20.4523       -993.35               
    17 r.21                  56.3655             0               
    18 r.22                  46.8936      -991.826               
    19 r.23                  1056.37             0               
    20 r.24                 -953.106       -991.21               
    21 r.25                  1056.37             0               
    22 r.26                 -999.351      -999.351               
    23 r.27                  56.3655             0               
    24 r.28                  3.89588      -998.578               
    25 r.29                  1056.37             0               
    26 r.30                 -943.634      -964.087               
    27 r.31                  56.3655             0               
    28 r.32                  56.3655      -952.827               
    29 r.33                  56.3655             0               
    30 r.34                  56.3655       -981.89               
    31 r.35                  1056.37             0               
    32 r.36                 -943.634      -990.528               
    33 r.37                        1             1             = 
    34 r.38                        1             1             = 
    35 r.39                        1             1             = 
    36 r.40                        1             1             = 
    37 r.41                        1             1             = 
    38 r.42                        1             1             = 
    39 r.43                        1             1             = 
    40 r.44                        1             1             = 
    41 r.45                     1001             2               
    42 r.46                    -1001         -1001               
    43 r.47                     2000      -983.224               
    44 r.48                     1001             2               
    45 r.49                    -1001         -1001               
    46 r.50                     2000      -988.369               
    47 r.51                     1000             2               
    48 r.52                    -1000         -1001               
    49 r.53                  2000.41      -999.072               
    50 r.54                        2             2               
    51 r.55                       -2         -1001               
    52 r.56                 -15.7653      -997.188               
    53 r.57                     1001             2               
    54 r.58                    -1001         -1001               
    55 r.59                  1983.22      -998.199               
    56 r.60                     1001             2               
    57 r.61                    -1001         -1001               
    58 r.62                     2000       -993.35               
    59 r.63                     1000             2               
    60 r.64                    -1000         -1001               
    61 r.65                  2026.44      -991.826               
    62 r.66                        2             2               
    63 r.67                       -2         -1001               
    64 r.68                 -973.559       -991.21               
    65 r.69                  18.9858       -983.06               
    66 r.70                 -982.096      -987.744               
    67 r.71                  18.9858       -983.06               
    68 r.72                 -982.096      -987.744               
    69 r.73                 -964.087      -964.087               
    70 r.74                  35.9132      -952.827               
    71 r.75                 -964.087      -964.087               
    72 r.76                  35.9132      -952.827               
    73 r.77                  35.9132       -981.89               
    74 r.78                 -964.087      -990.528               
    75 r.79                  35.9132       -981.89               
    76 r.80                 -964.087      -990.528               
    77 r.81                     1001             2               
    78 r.82                    -1001         -1001               
    79 r.83                  2000.41         16.94               
    80 r.84                     1001             2               
    81 r.85                    -1001         -1001               
    82 r.86                  1999.33       12.2558               
    83 r.87                     1001             2               
    84 r.88                    -1001         -1001               
    85 r.89                  2000.41      -999.072               
    86 r.90                     1001             2               
    87 r.91                    -1001         -1001               
    88 r.92                  1984.23      -997.188               
    89 r.93                        2             2               
    90 r.94                       -2         -1001               
    91 r.95                 -16.7762      -998.199               
    92 r.96                     1000             2               
    93 r.97                    -1000         -1001               
    94 r.98                     2000       -993.35               
    95 r.99                     1001             2               
    96 r.100                   -1001         -1001               
    97 r.101                 2026.44      -991.826               
    98 r.102                    1001             2               
    99 r.103                   -1001         -1001               
   100 r.104                 2026.44       -991.21               
   101 r.105                -981.423      -983.224               
   102 r.106                 18.5772      -988.369               
   103 r.107                -981.423      -983.224               
   104 r.108                 18.5772      -988.369               
   105 r.109                -964.087      -964.087               
   106 r.110                 35.9132      -952.827               
   107 r.111                -964.087      -964.087               
   108 r.112                 35.9132      -952.827               
   109 r.113                    1001             2               
   110 r.114                   -1001         -1001               
   111 r.115                 2035.91       -981.89               
   112 r.116                    1001             2               
   113 r.117                   -1001         -1001               
   114 r.118                 2035.91      -990.528               
   115 r.119                    1000             2               
   116 r.120                   -1000         -1001               
   117 r.121                 2000.41         16.94               
   118 r.122                       2             2               
   119 r.123                      -2         -1001               
   120 r.124                 14.4181       12.2558               
   121 r.125                    1001             2               
   122 r.126                   -1001         -1001               
   123 r.127                    2000       16.7762               
   124 r.128                    1001             2               
   125 r.129                   -1001         -1001               
   126 r.130                 2015.09       11.6307               
   127 r.131                    1001             2               
   128 r.132                   -1001         -1001               
   129 r.133                 1983.22      -998.199               
   130 r.134                    1001             2               
   131 r.135                   -1001         -1001               
   132 r.136                 2015.09       -993.35               
   133 r.137                    1000             2               
   134 r.138                   -1000         -1001               
   135 r.139                 2026.44      -991.826               
   136 r.140                       2             2               
   137 r.141                      -2         -1001               
   138 r.142                -958.467       -991.21               
   139 r.143                 18.9858      -999.072               
   140 r.144                -997.188      -997.188               
   141 r.145                 18.9858      -999.072               
   142 r.146                -997.188      -997.188               
   143 r.147                -964.087      -964.087               
   144 r.148                 35.9132      -952.827               
   145 r.149                -948.995      -964.087               
   146 r.150                  51.005      -952.827               
   147 r.151                 35.9132       -981.89               
   148 r.152                -964.087      -990.528               
   149 r.153                  51.005       -981.89               
   150 r.154                -948.995      -990.528               
   151 r.155                    1001             2               
   152 r.156                   -1001         -1001               
   153 r.157                 2017.18         16.94               
   154 r.158                    1001             2               
   155 r.159                   -1001         -1001               
   156 r.160                 1999.33       12.2558               
   157 r.161                       2             2               
   158 r.162                      -2         -1001               
   159 r.163                 16.7762       16.7762               
   160 r.164                    1000             2               
   161 r.165                   -1000         -1001               
   162 r.166                    2000       11.6307               
   163 r.167                    1001             2               
   164 r.168                   -1001         -1001               
   165 r.169                 2017.18        0.9278               
   166 r.170                    1001             2               
   167 r.171                   -1001         -1001               
   168 r.172                 1984.23       2.81187               
   169 r.173                    1001             2               
   170 r.174                   -1001         -1001               
   171 r.175                 2043.22      -991.826               
   172 r.176                    1001             2               
   173 r.177                   -1001         -1001               
   174 r.178                 2026.44       -991.21               
   175 r.179                -998.199      -998.199               
   176 r.180                 18.5772       -993.35               
   177 r.181                -998.199      -998.199               
   178 r.182                 18.5772       -993.35               
   179 r.183                -947.311      -964.087               
   180 r.184                 52.6894      -952.827               
   181 r.185                -964.087      -964.087               
   182 r.186                 35.9132      -952.827               
   183 r.187                    1001             2               
   184 r.188                   -1001         -1001               
   185 r.189                 2052.69       -981.89               
   186 r.190                    1001             2               
   187 r.191                   -1001         -1001               
   188 r.192                 2035.91      -990.528               
   189 r.193                    1000             2               
   190 r.194                   -1000         -1001               
   191 r.195                 1973.97         16.94               
   192 r.196                       2             2               
   193 r.197                      -2         -1001               
   194 r.198                 972.885       12.2558               
   195 r.199                    1001             2               
   196 r.200                   -1001         -1001               
   197 r.201                 1973.56       16.7762               
   198 r.202                    1001             2               
   199 r.203                   -1001         -1001               
   200 r.204                 1973.56       11.6307               
   201 r.205                    1000             2               
   202 r.206                   -1000         -1001               
   203 r.207                 1973.97        0.9278               
   204 r.208                       2             2               
   205 r.209                      -2         -1001               
   206 r.210                 957.793       2.81187               
   207 r.211                    1001             2               
   208 r.212                   -1001         -1001               
   209 r.213                 1956.78         1.801               
   210 r.214                    1001             2               
   211 r.215                   -1001         -1001               
   212 r.216                 1973.56       6.65048               
   213 r.217                 45.0185      -991.826               
   214 r.218                -954.981       -991.21               
   215 r.219                 45.0185      -991.826               
   216 r.220                -954.981       -991.21               
   217 r.221                    1001             2               
   218 r.222                   -1001         -1001               
   219 r.223                 2009.47      -964.087               
   220 r.224                    1001             2               
   221 r.225                   -1001         -1001               
   222 r.226                 2009.47      -952.827               
   223 r.227                 9.47189       -981.89               
   224 r.228                -990.528      -990.528               
   225 r.229                 9.47189       -981.89               
   226 r.230                -990.528      -990.528               
   227 r.231                 -945.51      -964.087               
   228 r.232                 54.4904      -952.827               
   229 r.233                 -945.51      -964.087               
   230 r.234                 54.4904      -952.827               
   231 r.235                    1001             2               
   232 r.236                   -1001         -1001               
   233 r.237                 1990.53       8.17443               
   234 r.238                    1001             2               
   235 r.239                   -1001         -1001               
   236 r.240                 1990.53        8.7903               
   237 r.241                    1001             2               
   238 r.242                   -1001         -1001               
   239 r.243                    2000       -981.89               
   240 r.244                    1001             2               
   241 r.245                   -1001         -1001               
   242 r.246                    2000      -990.528               
   243 r.247                    1001             2               
   244 r.248                   -1001         -1001               
   245 r.249                 1964.09       16.7762               
   246 r.250                    1001             2               
   247 r.251                   -1001         -1001               
   248 r.252                 1964.09       11.6307               
   249 r.253                    1001             2               
   250 r.254                   -1001         -1001               
   251 r.255                 1947.31         1.801               
   252 r.256                    1001             2               
   253 r.257                   -1001         -1001               
   254 r.258                 1964.09       6.65048               
   255 r.259                    1001             2               
   256 r.260                   -1001         -1001               
   257 r.261                    2000       35.9132               
   258 r.262                    1001             2               
   259 r.263                   -1001         -1001               
   260 r.264                    2000       47.1735               

   No. Column name       Activity     Lower bound   Upper bound
------ ------------    ------------- ------------- -------------
     1 tt                    56.3655             0               
     2 s_1_1        *              0             0             1 
     3 t_1_1                 35.9132             0               
     4 s_1_8        *              0             0             1 
     5 s_1_7        *              1             0             1 
     6 s_2_1        *              1             0             1 
     7 t_2_1                 35.9132             0               
     8 s_2_8        *              1             0             1 
     9 s_2_7        *              0             0             1 
    10 s_1_2        *              1             0             1 
    11 t_1_2                 35.9132             0               
    12 s_2_2        *              0             0             1 
    13 t_2_2                 35.9132             0               
    14 s_1_3        *              0             0             1 
    15 t_1_3                 35.9132             0               
    16 s_2_3        *              1             0             1 
    17 t_2_3                  51.005             0               
    18 s_1_4        *              1             0             1 
    19 t_1_4                 52.6894             0               
    20 s_2_4        *              0             0             1 
    21 t_2_4                 35.9132             0               
    22 s_1_5        *              0             0             1 
    23 t_1_5                 9.47189             0               
    24 s_2_5        *              1             0             1 
    25 t_2_5                 9.47189             0               
    26 s_1_6        *              1             0             1 
    27 t_1_6                 54.4904             0               
    28 s_2_6        *              0             0             1 
    29 t_2_6                 54.4904             0               
    30 t_1_7                       0             0               
    31 t_2_7                       0             0               
    32 t_1_8                       0             0               
    33 t_2_8                       0             0               
    34 r_1_1_2      *              1             0             1 
    35 u_1_1_2      *              0             0             1 
    36 r_2_1_2      *              1             0             1 
    37 u_2_1_2      *              0             0             1 
    38 r_1_1_3      *              1             0             1 
    39 u_1_1_3      *              0             0             1 
    40 r_2_1_3      *              0             0             1 
    41 u_2_1_3      *              0             0             1 
    42 r_1_1_4      *              1             0             1 
    43 u_1_1_4      *              0             0             1 
    44 r_2_1_4      *              1             0             1 
    45 u_2_1_4      *              0             0             1 
    46 r_1_1_5      *              1             0             1 
    47 u_1_1_5      *              0             0             1 
    48 r_2_1_5      *              0             0             1 
    49 u_2_1_5      *              1             0             1 
    50 r_1_2_3      *              1             0             1 
    51 u_1_2_3      *              0             0             1 
    52 r_2_2_3      *              1             0             1 
    53 u_2_2_3      *              0             0             1 
    54 r_1_2_4      *              0             0             1 
    55 u_1_2_4      *              0             0             1 
    56 r_2_2_4      *              1             0             1 
    57 u_2_2_4      *              0             0             1 
    58 r_1_2_5      *              1             0             1 
    59 u_1_2_5      *              0             0             1 
    60 r_2_2_5      *              1             0             1 
    61 u_2_2_5      *              0             0             1 
    62 r_1_2_8      *              1             0             1 
    63 u_1_2_8      *              0             0             1 
    64 r_2_2_8      *              1             0             1 
    65 u_2_2_8      *              0             0             1 
    66 r_1_3_4      *              1             0             1 
    67 u_1_3_4      *              0             0             1 
    68 r_2_3_4      *              1             0             1 
    69 u_2_3_4      *              0             0             1 
    70 r_1_3_5      *              1             0             1 
    71 u_1_3_5      *              0             0             1 
    72 r_2_3_5      *              0             0             1 
    73 u_2_3_5      *              1             0             1 
    74 r_1_4_5      *              1             0             1 
    75 u_1_4_5      *              0             0             1 
    76 r_2_4_5      *              1             0             1 
    77 u_2_4_5      *              0             0             1 
    78 r_1_4_8      *              1             0             1 
    79 u_1_4_8      *              0             0             1 
    80 r_2_4_8      *              1             0             1 
    81 u_2_4_8      *              0             0             1 
    82 r_1_5_7      *              1             0             1 
    83 u_1_5_7      *              0             0             1 
    84 r_2_5_7      *              1             0             1 
    85 u_2_5_7      *              0             0             1 
    86 r_1_7_8      *              1             0             1 
    87 u_1_7_8      *              0             0             1 
    88 r_2_7_8      *              1             0             1 
    89 u_2_7_8      *              0             0             1 

Integer feasibility conditions:

KKT.PE: max.abs.err = 4.55e-13 on row 153
        max.rel.err = 1.11e-16 on row 153
        High quality

KKT.PB: max.abs.err = 2.27e-13 on row 175
        max.rel.err = 2.28e-16 on row 175
        High quality

End of output
